p cnf 679 2147
-1 6 51 0
1 6 -51 0
-1 -6 -51 0
1 -6 51 0
-8 -9 52 0
8 -9 -52 0
-8 9 -52 0
8 9 52 0
-10 11 53 0
10 11 -53 0
-10 -11 -53 0
10 -11 53 0
12 -13 54 0
-12 -13 -54 0
12 13 -54 0
-12 13 54 0
-15 17 55 0
15 17 -55 0
-15 -17 -55 0
15 -17 55 0
-21 -26 56 0
21 -26 -56 0
-21 26 -56 0
21 26 56 0
32 33 57 0
-32 33 -57 0
32 -33 -57 0
-32 -33 57 0
35 -36 58 0
-35 -36 -58 0
35 36 -58 0
-35 36 58 0
37 38 59 0
-37 38 -59 0
37 -38 -59 0
-37 -38 59 0
-41 -44 60 0
41 -44 -60 0
-41 44 -60 0
41 44 60 0
46 47 61 0
-46 47 -61 0
46 -47 -61 0
-46 -47 61 0
50 -51 62 0
-50 -51 -62 0
50 51 -62 0
-50 51 62 0
52 -53 63 0
-52 -53 -63 0
52 53 -63 0
-52 53 63 0
54 -55 64 0
-54 -55 -64 0
54 55 -64 0
-54 55 64 0
56 -57 65 0
-56 -57 -65 0
56 57 -65 0
-56 57 65 0
58 -59 66 0
-58 -59 -66 0
58 59 -66 0
-58 59 66 0
60 -61 67 0
-60 -61 -67 0
60 61 -67 0
-60 61 67 0
62 -63 68 0
-62 -63 -68 0
62 63 -68 0
-62 63 68 0
64 -65 69 0
-64 -65 -69 0
64 65 -69 0
-64 65 69 0
66 -67 70 0
-66 -67 -70 0
66 67 -70 0
-66 67 70 0
-68 -69 70 0
68 -69 -70 0
-68 69 -70 0
68 69 70 0
-3 4 71 0
3 4 -71 0
-3 -4 -71 0
3 -4 71 0
6 7 72 0
-6 7 -72 0
6 -7 -72 0
-6 -7 72 0
-8 9 73 0
8 9 -73 0
-8 -9 -73 0
8 -9 73 0
-12 -15 74 0
12 -15 -74 0
-12 15 -74 0
12 15 74 0
18 -19 75 0
-18 -19 -75 0
18 19 -75 0
-18 19 75 0
-20 21 76 0
20 21 -76 0
-20 -21 -76 0
20 -21 76 0
22 25 77 0
-22 25 -77 0
22 -25 -77 0
-22 -25 77 0
27 31 78 0
-27 31 -78 0
27 -31 -78 0
-27 -31 78 0
-32 -33 79 0
32 -33 -79 0
-32 33 -79 0
32 33 79 0
35 37 80 0
-35 37 -80 0
35 -37 -80 0
-35 -37 80 0
38 39 81 0
-38 39 -81 0
38 -39 -81 0
-38 -39 81 0
-42 -43 82 0
42 -43 -82 0
-42 43 -82 0
42 43 82 0
-44 -45 83 0
44 -45 -83 0
-44 45 -83 0
44 45 83 0
49 50 84 0
-49 50 -84 0
49 -50 -84 0
-49 -50 84 0
71 -72 85 0
-71 -72 -85 0
71 72 -85 0
-71 72 85 0
73 -74 86 0
-73 -74 -86 0
73 74 -86 0
-73 74 86 0
75 -76 87 0
-75 -76 -87 0
75 76 -87 0
-75 76 87 0
77 -78 88 0
-77 -78 -88 0
77 78 -88 0
-77 78 88 0
79 -80 89 0
-79 -80 -89 0
79 80 -89 0
-79 80 89 0
81 -82 90 0
-81 -82 -90 0
81 82 -90 0
-81 82 90 0
83 -84 91 0
-83 -84 -91 0
83 84 -91 0
-83 84 91 0
85 -86 92 0
-85 -86 -92 0
85 86 -92 0
-85 86 92 0
87 -88 93 0
-87 -88 -93 0
87 88 -93 0
-87 88 93 0
89 -90 94 0
-89 -90 -94 0
89 90 -94 0
-89 90 94 0
91 -92 95 0
-91 -92 -95 0
91 92 -95 0
-91 92 95 0
93 -94 96 0
-93 -94 -96 0
93 94 -96 0
-93 94 96 0
95 96 0
-95 -96 0
1 3 97 0
-1 3 -97 0
1 -3 -97 0
-1 -3 97 0
-4 5 98 0
4 5 -98 0
-4 -5 -98 0
4 -5 98 0
7 10 99 0
-7 10 -99 0
7 -10 -99 0
-7 -10 99 0
12 -14 100 0
-12 -14 -100 0
12 14 -100 0
-12 14 100 0
-15 19 101 0
15 19 -101 0
-15 -19 -101 0
15 -19 101 0
20 -21 102 0
-20 -21 -102 0
20 21 -102 0
-20 21 102 0
-24 -25 103 0
24 -25 -103 0
-24 25 -103 0
24 25 103 0
27 -29 104 0
-27 -29 -104 0
27 29 -104 0
-27 29 104 0
30 33 105 0
-30 33 -105 0
30 -33 -105 0
-30 -33 105 0
35 36 106 0
-35 36 -106 0
35 -36 -106 0
-35 -36 106 0
37 -39 107 0
-37 -39 -107 0
37 39 -107 0
-37 39 107 0
-43 -44 108 0
43 -44 -108 0
-43 44 -108 0
43 44 108 0
45 -46 109 0
-45 -46 -109 0
45 46 -109 0
-45 46 109 0
-47 -48 110 0
47 -48 -110 0
-47 48 -110 0
47 48 110 0
97 -98 111 0
-97 -98 -111 0
97 98 -111 0
-97 98 111 0
99 -100 112 0
-99 -100 -112 0
99 100 -112 0
-99 100 112 0
101 -102 113 0
-101 -102 -113 0
101 102 -113 0
-101 102 113 0
103 -104 114 0
-103 -104 -114 0
103 104 -114 0
-103 104 114 0
105 -106 115 0
-105 -106 -115 0
105 106 -115 0
-105 106 115 0
107 -108 116 0
-107 -108 -116 0
107 108 -116 0
-107 108 116 0
109 -110 117 0
-109 -110 -117 0
109 110 -117 0
-109 110 117 0
111 -112 118 0
-111 -112 -118 0
111 112 -118 0
-111 112 118 0
113 -114 119 0
-113 -114 -119 0
113 114 -119 0
-113 114 119 0
115 -116 120 0
-115 -116 -120 0
115 116 -120 0
-115 116 120 0
117 -118 121 0
-117 -118 -121 0
117 118 -121 0
-117 118 121 0
119 -120 122 0
-119 -120 -122 0
119 120 -122 0
-119 120 122 0
121 122 0
-121 -122 0
-2 3 123 0
2 3 -123 0
-2 -3 -123 0
2 -3 123 0
4 -5 124 0
-4 -5 -124 0
4 5 -124 0
-4 5 124 0
6 7 125 0
-6 7 -125 0
6 -7 -125 0
-6 -7 125 0
8 -10 126 0
-8 -10 -126 0
8 10 -126 0
-8 10 126 0
-12 13 127 0
12 13 -127 0
-12 -13 -127 0
12 -13 127 0
15 18 128 0
-15 18 -128 0
15 -18 -128 0
-15 -18 128 0
19 20 129 0
-19 20 -129 0
19 -20 -129 0
-19 -20 129 0
-21 -23 130 0
21 -23 -130 0
-21 23 -130 0
21 23 130 0
24 -25 131 0
-24 -25 -131 0
24 25 -131 0
-24 25 131 0
26 27 132 0
-26 27 -132 0
26 -27 -132 0
-26 -27 132 0
-28 -29 133 0
28 -29 -133 0
-28 29 -133 0
28 29 133 0
30 31 134 0
-30 31 -134 0
30 -31 -134 0
-30 -31 134 0
32 34 135 0
-32 34 -135 0
32 -34 -135 0
-32 -34 135 0
39 40 136 0
-39 40 -136 0
39 -40 -136 0
-39 -40 136 0
-41 -42 137 0
41 -42 -137 0
-41 42 -137 0
41 42 137 0
-44 45 138 0
44 45 -138 0
-44 -45 -138 0
44 -45 138 0
49 50 139 0
-49 50 -139 0
49 -50 -139 0
-49 -50 139 0
123 -124 140 0
-123 -124 -140 0
123 124 -140 0
-123 124 140 0
125 -126 141 0
-125 -126 -141 0
125 126 -141 0
-125 126 141 0
127 -128 142 0
-127 -128 -142 0
127 128 -142 0
-127 128 142 0
129 -130 143 0
-129 -130 -143 0
129 130 -143 0
-129 130 143 0
131 -132 144 0
-131 -132 -144 0
131 132 -144 0
-131 132 144 0
133 -134 145 0
-133 -134 -145 0
133 134 -145 0
-133 134 145 0
135 -136 146 0
-135 -136 -146 0
135 136 -146 0
-135 136 146 0
137 -138 147 0
-137 -138 -147 0
137 138 -147 0
-137 138 147 0
139 -140 148 0
-139 -140 -148 0
139 140 -148 0
-139 140 148 0
141 -142 149 0
-141 -142 -149 0
141 142 -149 0
-141 142 149 0
143 -144 150 0
-143 -144 -150 0
143 144 -150 0
-143 144 150 0
145 -146 151 0
-145 -146 -151 0
145 146 -151 0
-145 146 151 0
147 -148 152 0
-147 -148 -152 0
147 148 -152 0
-147 148 152 0
149 -150 153 0
-149 -150 -153 0
149 150 -153 0
-149 150 153 0
-151 -152 153 0
151 -152 -153 0
-151 152 -153 0
151 152 153 0
-6 -8 154 0
6 -8 -154 0
-6 8 -154 0
6 8 154 0
9 15 155 0
-9 15 -155 0
9 -15 -155 0
-9 -15 155 0
-17 18 156 0
17 18 -156 0
-17 -18 -156 0
17 -18 156 0
20 21 157 0
-20 21 -157 0
20 -21 -157 0
-20 -21 157 0
-22 -23 158 0
22 -23 -158 0
-22 23 -158 0
22 23 158 0
25 26 159 0
-25 26 -159 0
25 -26 -159 0
-25 -26 159 0
27 28 160 0
-27 28 -160 0
27 -28 -160 0
-27 -28 160 0
31 32 161 0
-31 32 -161 0
31 -32 -161 0
-31 -32 161 0
33 -36 162 0
-33 -36 -162 0
33 36 -162 0
-33 36 162 0
-38 -39 163 0
38 -39 -163 0
-38 39 -163 0
38 39 163 0
40 -42 164 0
-40 -42 -164 0
40 42 -164 0
-40 42 164 0
43 -44 165 0
-43 -44 -165 0
43 44 -165 0
-43 44 165 0
-47 48 166 0
47 48 -166 0
-47 -48 -166 0
47 -48 166 0
154 -155 167 0
-154 -155 -167 0
154 155 -167 0
-154 155 167 0
156 -157 168 0
-156 -157 -168 0
156 157 -168 0
-156 157 168 0
158 -159 169 0
-158 -159 -169 0
158 159 -169 0
-158 159 169 0
160 -161 170 0
-160 -161 -170 0
160 161 -170 0
-160 161 170 0
162 -163 171 0
-162 -163 -171 0
162 163 -171 0
-162 163 171 0
164 -165 172 0
-164 -165 -172 0
164 165 -172 0
-164 165 172 0
166 -167 173 0
-166 -167 -173 0
166 167 -173 0
-166 167 173 0
168 -169 174 0
-168 -169 -174 0
168 169 -174 0
-168 169 174 0
170 -171 175 0
-170 -171 -175 0
170 171 -175 0
-170 171 175 0
172 -173 176 0
-172 -173 -176 0
172 173 -176 0
-172 173 176 0
174 -175 177 0
-174 -175 -177 0
174 175 -177 0
-174 175 177 0
176 177 0
-176 -177 0
1 -4 178 0
-1 -4 -178 0
1 4 -178 0
-1 4 178 0
5 7 179 0
-5 7 -179 0
5 -7 -179 0
-5 -7 179 0
-11 -12 180 0
11 -12 -180 0
-11 12 -180 0
11 12 180 0
-13 15 181 0
13 15 -181 0
-13 -15 -181 0
13 -15 181 0
-16 -23 182 0
16 -23 -182 0
-16 23 -182 0
16 23 182 0
25 26 183 0
-25 26 -183 0
25 -26 -183 0
-25 -26 183 0
-28 -29 184 0
28 -29 -184 0
-28 29 -184 0
28 29 184 0
-30 31 185 0
30 31 -185 0
-30 -31 -185 0
30 -31 185 0
33 -35 186 0
-33 -35 -186 0
33 35 -186 0
-33 35 186 0
-37 -38 187 0
37 -38 -187 0
-37 38 -187 0
37 38 187 0
40 -46 188 0
-40 -46 -188 0
40 46 -188 0
-40 46 188 0
47 -49 189 0
-47 -49 -189 0
47 49 -189 0
-47 49 189 0
178 -179 190 0
-178 -179 -190 0
178 179 -190 0
-178 179 190 0
180 -181 191 0
-180 -181 -191 0
180 181 -191 0
-180 181 191 0
182 -183 192 0
-182 -183 -192 0
182 183 -192 0
-182 183 192 0
184 -185 193 0
-184 -185 -193 0
184 185 -193 0
-184 185 193 0
186 -187 194 0
-186 -187 -194 0
186 187 -194 0
-186 187 194 0
188 -189 195 0
-188 -189 -195 0
188 189 -195 0
-188 189 195 0
190 -191 196 0
-190 -191 -196 0
190 191 -196 0
-190 191 196 0
192 -193 197 0
-192 -193 -197 0
192 193 -197 0
-192 193 197 0
194 -195 198 0
-194 -195 -198 0
194 195 -198 0
-194 195 198 0
-196 -197 198 0
196 -197 -198 0
-196 197 -198 0
196 197 198 0
4 5 199 0
-4 5 -199 0
4 -5 -199 0
-4 -5 199 0
-7 9 200 0
7 9 -200 0
-7 -9 -200 0
7 -9 200 0
-12 -13 201 0
12 -13 -201 0
-12 13 -201 0
12 13 201 0
-14 -17 202 0
14 -17 -202 0
-14 17 -202 0
14 17 202 0
22 23 203 0
-22 23 -203 0
22 -23 -203 0
-22 -23 203 0
-26 29 204 0
26 29 -204 0
-26 -29 -204 0
26 -29 204 0
-30 -33 205 0
30 -33 -205 0
-30 33 -205 0
30 33 205 0
34 -35 206 0
-34 -35 -206 0
34 35 -206 0
-34 35 206 0
36 38 207 0
-36 38 -207 0
36 -38 -207 0
-36 -38 207 0
-40 41 208 0
40 41 -208 0
-40 -41 -208 0
40 -41 208 0
-45 -47 209 0
45 -47 -209 0
-45 47 -209 0
45 47 209 0
199 -200 210 0
-199 -200 -210 0
199 200 -210 0
-199 200 210 0
201 -202 211 0
-201 -202 -211 0
201 202 -211 0
-201 202 211 0
203 -204 212 0
-203 -204 -212 0
203 204 -212 0
-203 204 212 0
205 -206 213 0
-205 -206 -213 0
205 206 -213 0
-205 206 213 0
207 -208 214 0
-207 -208 -214 0
207 208 -214 0
-207 208 214 0
209 -210 215 0
-209 -210 -215 0
209 210 -215 0
-209 210 215 0
211 -212 216 0
-211 -212 -216 0
211 212 -216 0
-211 212 216 0
213 -214 217 0
-213 -214 -217 0
213 214 -217 0
-213 214 217 0
-215 -216 217 0
215 -216 -217 0
-215 216 -217 0
215 216 217 0
1 2 218 0
-1 2 -218 0
1 -2 -218 0
-1 -2 218 0
4 7 219 0
-4 7 -219 0
4 -7 -219 0
-4 -7 219 0
-9 -10 220 0
9 -10 -220 0
-9 10 -220 0
9 10 220 0
-11 -12 221 0
11 -12 -221 0
-11 12 -221 0
11 12 221 0
13 16 222 0
-13 16 -222 0
13 -16 -222 0
-13 -16 222 0
17 18 223 0
-17 18 -223 0
17 -18 -223 0
-17 -18 223 0
-19 21 224 0
19 21 -224 0
-19 -21 -224 0
19 -21 224 0
22 23 225 0
-22 23 -225 0
22 -23 -225 0
-22 -23 225 0
-26 -32 226 0
26 -32 -226 0
-26 32 -226 0
26 32 226 0
-33 37 227 0
33 37 -227 0
-33 -37 -227 0
33 -37 227 0
-39 40 228 0
39 40 -228 0
-39 -40 -228 0
39 -40 228 0
-41 42 229 0
41 42 -229 0
-41 -42 -229 0
41 -42 229 0
43 49 230 0
-43 49 -230 0
43 -49 -230 0
-43 -49 230 0
217 -218 231 0
-217 -218 -231 0
217 218 -231 0
-217 218 231 0
219 -220 232 0
-219 -220 -232 0
219 220 -232 0
-219 220 232 0
221 -222 233 0
-221 -222 -233 0
221 222 -233 0
-221 222 233 0
223 -224 234 0
-223 -224 -234 0
223 224 -234 0
-223 224 234 0
225 -226 235 0
-225 -226 -235 0
225 226 -235 0
-225 226 235 0
227 -228 236 0
-227 -228 -236 0
227 228 -236 0
-227 228 236 0
229 -230 237 0
-229 -230 -237 0
229 230 -237 0
-229 230 237 0
231 -232 238 0
-231 -232 -238 0
231 232 -238 0
-231 232 238 0
233 -234 239 0
-233 -234 -239 0
233 234 -239 0
-233 234 239 0
235 -236 240 0
-235 -236 -240 0
235 236 -240 0
-235 236 240 0
237 -238 241 0
-237 -238 -241 0
237 238 -241 0
-237 238 241 0
239 -240 242 0
-239 -240 -242 0
239 240 -242 0
-239 240 242 0
241 242 0
-241 -242 0
1 -2 243 0
-1 -2 -243 0
1 2 -243 0
-1 2 243 0
3 4 244 0
-3 4 -244 0
3 -4 -244 0
-3 -4 244 0
-5 -6 245 0
5 -6 -245 0
-5 6 -245 0
5 6 245 0
7 -8 246 0
-7 -8 -246 0
7 8 -246 0
-7 8 246 0
-9 -12 247 0
9 -12 -247 0
-9 12 -247 0
9 12 247 0
-13 -15 248 0
13 -15 -248 0
-13 15 -248 0
13 15 248 0
17 -18 249 0
-17 -18 -249 0
17 18 -249 0
-17 18 249 0
-19 -20 250 0
19 -20 -250 0
-19 20 -250 0
19 20 250 0
-21 22 251 0
21 22 -251 0
-21 -22 -251 0
21 -22 251 0
25 -26 252 0
-25 -26 -252 0
25 26 -252 0
-25 26 252 0
27 28 253 0
-27 28 -253 0
27 -28 -253 0
-27 -28 253 0
-29 -30 254 0
29 -30 -254 0
-29 30 -254 0
29 30 254 0
31 32 255 0
-31 32 -255 0
31 -32 -255 0
-31 -32 255 0
33 -34 256 0
-33 -34 -256 0
33 34 -256 0
-33 34 256 0
-35 37 257 0
35 37 -257 0
-35 -37 -257 0
35 -37 257 0
-38 -41 258 0
38 -41 -258 0
-38 41 -258 0
38 41 258 0
43 46 259 0
-43 46 -259 0
43 -46 -259 0
-43 -46 259 0
47 -49 260 0
-47 -49 -260 0
47 49 -260 0
-47 49 260 0
243 -244 261 0
-243 -244 -261 0
243 244 -261 0
-243 244 261 0
245 -246 262 0
-245 -246 -262 0
245 246 -262 0
-245 246 262 0
247 -248 263 0
-247 -248 -263 0
247 248 -263 0
-247 248 263 0
249 -250 264 0
-249 -250 -264 0
249 250 -264 0
-249 250 264 0
251 -252 265 0
-251 -252 -265 0
251 252 -265 0
-251 252 265 0
253 -254 266 0
-253 -254 -266 0
253 254 -266 0
-253 254 266 0
255 -256 267 0
-255 -256 -267 0
255 256 -267 0
-255 256 267 0
257 -258 268 0
-257 -258 -268 0
257 258 -268 0
-257 258 268 0
259 -260 269 0
-259 -260 -269 0
259 260 -269 0
-259 260 269 0
261 -262 270 0
-261 -262 -270 0
261 262 -270 0
-261 262 270 0
263 -264 271 0
-263 -264 -271 0
263 264 -271 0
-263 264 271 0
265 -266 272 0
-265 -266 -272 0
265 266 -272 0
-265 266 272 0
267 -268 273 0
-267 -268 -273 0
267 268 -273 0
-267 268 273 0
269 -270 274 0
-269 -270 -274 0
269 270 -274 0
-269 270 274 0
271 -272 275 0
-271 -272 -275 0
271 272 -275 0
-271 272 275 0
-273 -274 275 0
273 -274 -275 0
-273 274 -275 0
273 274 275 0
1 5 276 0
-1 5 -276 0
1 -5 -276 0
-1 -5 276 0
6 -7 277 0
-6 -7 -277 0
6 7 -277 0
-6 7 277 0
-8 9 278 0
8 9 -278 0
-8 -9 -278 0
8 -9 278 0
15 16 279 0
-15 16 -279 0
15 -16 -279 0
-15 -16 279 0
-19 21 280 0
19 21 -280 0
-19 -21 -280 0
19 -21 280 0
-22 25 281 0
22 25 -281 0
-22 -25 -281 0
22 -25 281 0
26 -29 282 0
-26 -29 -282 0
26 29 -282 0
-26 29 282 0
30 31 283 0
-30 31 -283 0
30 -31 -283 0
-30 -31 283 0
-32 35 284 0
32 35 -284 0
-32 -35 -284 0
32 -35 284 0
-36 -37 285 0
36 -37 -285 0
-36 37 -285 0
36 37 285 0
-38 -39 286 0
38 -39 -286 0
-38 39 -286 0
38 39 286 0
41 45 287 0
-41 45 -287 0
41 -45 -287 0
-41 -45 287 0
275 -276 288 0
-275 -276 -288 0
275 276 -288 0
-275 276 288 0
277 -278 289 0
-277 -278 -289 0
277 278 -289 0
-277 278 289 0
279 -280 290 0
-279 -280 -290 0
279 280 -290 0
-279 280 290 0
281 -282 291 0
-281 -282 -291 0
281 282 -291 0
-281 282 291 0
283 -284 292 0
-283 -284 -292 0
283 284 -292 0
-283 284 292 0
285 -286 293 0
-285 -286 -293 0
285 286 -293 0
-285 286 293 0
287 -288 294 0
-287 -288 -294 0
287 288 -294 0
-287 288 294 0
289 -290 295 0
-289 -290 -295 0
289 290 -295 0
-289 290 295 0
291 -292 296 0
-291 -292 -296 0
291 292 -296 0
-291 292 296 0
293 -294 297 0
-293 -294 -297 0
293 294 -297 0
-293 294 297 0
295 -296 298 0
-295 -296 -298 0
295 296 -298 0
-295 296 298 0
297 298 0
-297 -298 0
-2 3 299 0
2 3 -299 0
-2 -3 -299 0
2 -3 299 0
5 6 300 0
-5 6 -300 0
5 -6 -300 0
-5 -6 300 0
-7 -9 301 0
7 -9 -301 0
-7 9 -301 0
7 9 301 0
-11 12 302 0
11 12 -302 0
-11 -12 -302 0
11 -12 302 0
16 21 303 0
-16 21 -303 0
16 -21 -303 0
-16 -21 303 0
-22 -27 304 0
22 -27 -304 0
-22 27 -304 0
22 27 304 0
28 29 305 0
-28 29 -305 0
28 -29 -305 0
-28 -29 305 0
-33 -34 306 0
33 -34 -306 0
-33 34 -306 0
33 34 306 0
-35 -37 307 0
35 -37 -307 0
-35 37 -307 0
35 37 307 0
-38 39 308 0
38 39 -308 0
-38 -39 -308 0
38 -39 308 0
-41 45 309 0
41 45 -309 0
-41 -45 -309 0
41 -45 309 0
-47 -48 310 0
47 -48 -310 0
-47 48 -310 0
47 48 310 0
298 -299 311 0
-298 -299 -311 0
298 299 -311 0
-298 299 311 0
300 -301 312 0
-300 -301 -312 0
300 301 -312 0
-300 301 312 0
302 -303 313 0
-302 -303 -313 0
302 303 -313 0
-302 303 313 0
304 -305 314 0
-304 -305 -314 0
304 305 -314 0
-304 305 314 0
306 -307 315 0
-306 -307 -315 0
306 307 -315 0
-306 307 315 0
308 -309 316 0
-308 -309 -316 0
308 309 -316 0
-308 309 316 0
310 -311 317 0
-310 -311 -317 0
310 311 -317 0
-310 311 317 0
312 -313 318 0
-312 -313 -318 0
312 313 -318 0
-312 313 318 0
314 -315 319 0
-314 -315 -319 0
314 315 -319 0
-314 315 319 0
316 -317 320 0
-316 -317 -320 0
316 317 -320 0
-316 317 320 0
318 -319 321 0
-318 -319 -321 0
318 319 -321 0
-318 319 321 0
320 321 0
-320 -321 0
-1 -8 322 0
1 -8 -322 0
-1 8 -322 0
1 8 322 0
-9 15 323 0
9 15 -323 0
-9 -15 -323 0
9 -15 323 0
16 24 324 0
-16 24 -324 0
16 -24 -324 0
-16 -24 324 0
-26 -27 325 0
26 -27 -325 0
-26 27 -325 0
26 27 325 0
29 -31 326 0
-29 -31 -326 0
29 31 -326 0
-29 31 326 0
34 38 327 0
-34 38 -327 0
34 -38 -327 0
-34 -38 327 0
-41 -42 328 0
41 -42 -328 0
-41 42 -328 0
41 42 328 0
43 -46 329 0
-43 -46 -329 0
43 46 -329 0
-43 46 329 0
47 -48 330 0
-47 -48 -330 0
47 48 -330 0
-47 48 330 0
321 -322 331 0
-321 -322 -331 0
321 322 -331 0
-321 322 331 0
323 -324 332 0
-323 -324 -332 0
323 324 -332 0
-323 324 332 0
325 -326 333 0
-325 -326 -333 0
325 326 -333 0
-325 326 333 0
327 -328 334 0
-327 -328 -334 0
327 328 -334 0
-327 328 334 0
329 -330 335 0
-329 -330 -335 0
329 330 -335 0
-329 330 335 0
331 -332 336 0
-331 -332 -336 0
331 332 -336 0
-331 332 336 0
333 -334 337 0
-333 -334 -337 0
333 334 -337 0
-333 334 337 0
-335 -336 337 0
335 -336 -337 0
-335 336 -337 0
335 336 337 0
1 -3 338 0
-1 -3 -338 0
1 3 -338 0
-1 3 338 0
7 -8 339 0
-7 -8 -339 0
7 8 -339 0
-7 8 339 0
-10 13 340 0
10 13 -340 0
-10 -13 -340 0
10 -13 340 0
14 15 341 0
-14 15 -341 0
14 -15 -341 0
-14 -15 341 0
-16 18 342 0
16 18 -342 0
-16 -18 -342 0
16 -18 342 0
19 21 343 0
-19 21 -343 0
19 -21 -343 0
-19 -21 343 0
-22 -23 344 0
22 -23 -344 0
-22 23 -344 0
22 23 344 0
24 25 345 0
-24 25 -345 0
24 -25 -345 0
-24 -25 345 0
28 29 346 0
-28 29 -346 0
28 -29 -346 0
-28 -29 346 0
30 31 347 0
-30 31 -347 0
30 -31 -347 0
-30 -31 347 0
-32 -33 348 0
32 -33 -348 0
-32 33 -348 0
32 33 348 0
35 -39 349 0
-35 -39 -349 0
35 39 -349 0
-35 39 349 0
40 41 350 0
-40 41 -350 0
40 -41 -350 0
-40 -41 350 0
-42 46 351 0
42 46 -351 0
-42 -46 -351 0
42 -46 351 0
47 48 352 0
-47 48 -352 0
47 -48 -352 0
-47 -48 352 0
337 -338 353 0
-337 -338 -353 0
337 338 -353 0
-337 338 353 0
339 -340 354 0
-339 -340 -354 0
339 340 -354 0
-339 340 354 0
341 -342 355 0
-341 -342 -355 0
341 342 -355 0
-341 342 355 0
343 -344 356 0
-343 -344 -356 0
343 344 -356 0
-343 344 356 0
345 -346 357 0
-345 -346 -357 0
345 346 -357 0
-345 346 357 0
347 -348 358 0
-347 -348 -358 0
347 348 -358 0
-347 348 358 0
349 -350 359 0
-349 -350 -359 0
349 350 -359 0
-349 350 359 0
351 -352 360 0
-351 -352 -360 0
351 352 -360 0
-351 352 360 0
353 -354 361 0
-353 -354 -361 0
353 354 -361 0
-353 354 361 0
355 -356 362 0
-355 -356 -362 0
355 356 -362 0
-355 356 362 0
357 -358 363 0
-357 -358 -363 0
357 358 -363 0
-357 358 363 0
359 -360 364 0
-359 -360 -364 0
359 360 -364 0
-359 360 364 0
361 -362 365 0
-361 -362 -365 0
361 362 -365 0
-361 362 365 0
363 -364 366 0
-363 -364 -366 0
363 364 -366 0
-363 364 366 0
365 366 0
-365 -366 0
-2 4 367 0
2 4 -367 0
-2 -4 -367 0
2 -4 367 0
5 -6 368 0
-5 -6 -368 0
5 6 -368 0
-5 6 368 0
-7 -9 369 0
7 -9 -369 0
-7 9 -369 0
7 9 369 0
10 -11 370 0
-10 -11 -370 0
10 11 -370 0
-10 11 370 0
12 -13 371 0
-12 -13 -371 0
12 13 -371 0
-12 13 371 0
14 15 372 0
-14 15 -372 0
14 -15 -372 0
-14 -15 372 0
16 -17 373 0
-16 -17 -373 0
16 17 -373 0
-16 17 373 0
20 -21 374 0
-20 -21 -374 0
20 21 -374 0
-20 21 374 0
23 24 375 0
-23 24 -375 0
23 -24 -375 0
-23 -24 375 0
26 -31 376 0
-26 -31 -376 0
26 31 -376 0
-26 31 376 0
-32 -33 377 0
32 -33 -377 0
-32 33 -377 0
32 33 377 0
34 -35 378 0
-34 -35 -378 0
34 35 -378 0
-34 35 378 0
37 -38 379 0
-37 -38 -379 0
37 38 -379 0
-37 38 379 0
39 40 380 0
-39 40 -380 0
39 -40 -380 0
-39 -40 380 0
41 44 381 0
-41 44 -381 0
41 -44 -381 0
-41 -44 381 0
366 -367 382 0
-366 -367 -382 0
366 367 -382 0
-366 367 382 0
368 -369 383 0
-368 -369 -383 0
368 369 -383 0
-368 369 383 0
370 -371 384 0
-370 -371 -384 0
370 371 -384 0
-370 371 384 0
372 -373 385 0
-372 -373 -385 0
372 373 -385 0
-372 373 385 0
374 -375 386 0
-374 -375 -386 0
374 375 -386 0
-374 375 386 0
376 -377 387 0
-376 -377 -387 0
376 377 -387 0
-376 377 387 0
378 -379 388 0
-378 -379 -388 0
378 379 -388 0
-378 379 388 0
380 -381 389 0
-380 -381 -389 0
380 381 -389 0
-380 381 389 0
382 -383 390 0
-382 -383 -390 0
382 383 -390 0
-382 383 390 0
384 -385 391 0
-384 -385 -391 0
384 385 -391 0
-384 385 391 0
386 -387 392 0
-386 -387 -392 0
386 387 -392 0
-386 387 392 0
388 -389 393 0
-388 -389 -393 0
388 389 -393 0
-388 389 393 0
390 -391 394 0
-390 -391 -394 0
390 391 -394 0
-390 391 394 0
392 -393 395 0
-392 -393 -395 0
392 393 -395 0
-392 393 395 0
394 395 0
-394 -395 0
-2 3 396 0
2 3 -396 0
-2 -3 -396 0
2 -3 396 0
4 5 397 0
-4 5 -397 0
4 -5 -397 0
-4 -5 397 0
-6 -11 398 0
6 -11 -398 0
-6 11 -398 0
6 11 398 0
-12 17 399 0
12 17 -399 0
-12 -17 -399 0
12 -17 399 0
21 -23 400 0
-21 -23 -400 0
21 23 -400 0
-21 23 400 0
24 25 401 0
-24 25 -401 0
24 -25 -401 0
-24 -25 401 0
27 -29 402 0
-27 -29 -402 0
27 29 -402 0
-27 29 402 0
-30 32 403 0
30 32 -403 0
-30 -32 -403 0
30 -32 403 0
-34 -35 404 0
34 -35 -404 0
-34 35 -404 0
34 35 404 0
-37 38 405 0
37 38 -405 0
-37 -38 -405 0
37 -38 405 0
-39 43 406 0
39 43 -406 0
-39 -43 -406 0
39 -43 406 0
44 -46 407 0
-44 -46 -407 0
44 46 -407 0
-44 46 407 0
-47 48 408 0
47 48 -408 0
-47 -48 -408 0
47 -48 408 0
49 -50 409 0
-49 -50 -409 0
49 50 -409 0
-49 50 409 0
396 -397 410 0
-396 -397 -410 0
396 397 -410 0
-396 397 410 0
398 -399 411 0
-398 -399 -411 0
398 399 -411 0
-398 399 411 0
400 -401 412 0
-400 -401 -412 0
400 401 -412 0
-400 401 412 0
402 -403 413 0
-402 -403 -413 0
402 403 -413 0
-402 403 413 0
404 -405 414 0
-404 -405 -414 0
404 405 -414 0
-404 405 414 0
406 -407 415 0
-406 -407 -415 0
406 407 -415 0
-406 407 415 0
408 -409 416 0
-408 -409 -416 0
408 409 -416 0
-408 409 416 0
410 -411 417 0
-410 -411 -417 0
410 411 -417 0
-410 411 417 0
412 -413 418 0
-412 -413 -418 0
412 413 -418 0
-412 413 418 0
414 -415 419 0
-414 -415 -419 0
414 415 -419 0
-414 415 419 0
416 -417 420 0
-416 -417 -420 0
416 417 -420 0
-416 417 420 0
418 -419 421 0
-418 -419 -421 0
418 419 -421 0
-418 419 421 0
420 421 0
-420 -421 0
-12 422 0
-24 422 0
-12 -24 423 0
-23 422 0
-12 -23 423 0
-24 -23 423 0
-12 -24 -23 424 0
-22 425 0
-21 425 0
-22 -21 426 0
-20 425 0
-22 -20 426 0
-21 -20 426 0
-22 -21 -20 427 0
-422 428 0
-423 429 0
-424 430 0
-425 428 0
-426 429 0
-427 430 0
-422 -425 429 0
-422 -426 430 0
-422 -427 431 0
-423 -425 430 0
-423 -426 431 0
-423 -427 432 0
-424 -425 431 0
-424 -426 432 0
-424 -427 433 0
-19 434 0
-18 434 0
-19 -18 435 0
-17 434 0
-19 -17 435 0
-18 -17 435 0
-19 -18 -17 436 0
-16 437 0
-15 437 0
-16 -15 438 0
-14 437 0
-16 -14 438 0
-15 -14 438 0
-16 -15 -14 439 0
-434 440 0
-435 441 0
-436 442 0
-437 440 0
-438 441 0
-439 442 0
-434 -437 441 0
-434 -438 442 0
-434 -439 443 0
-435 -437 442 0
-435 -438 443 0
-435 -439 444 0
-436 -437 443 0
-436 -438 444 0
-436 -439 445 0
-13 446 0
-25 446 0
-13 -25 447 0
-11 446 0
-13 -11 447 0
-25 -11 447 0
-13 -25 -11 448 0
-10 449 0
-9 449 0
-10 -9 450 0
-8 449 0
-10 -8 450 0
-9 -8 450 0
-10 -9 -8 451 0
-446 452 0
-447 453 0
-448 454 0
-449 452 0
-450 453 0
-451 454 0
-446 -449 453 0
-446 -450 454 0
-446 -451 455 0
-447 -449 454 0
-447 -450 455 0
-447 -451 456 0
-448 -449 455 0
-448 -450 456 0
-448 -451 457 0
-7 458 0
-6 458 0
-7 -6 459 0
-5 458 0
-7 -5 459 0
-6 -5 459 0
-7 -6 -5 460 0
-4 461 0
-3 461 0
-4 -3 462 0
-2 463 0
-1 463 0
-2 -1 464 0
-37 463 0
-2 -37 464 0
-1 -37 464 0
-2 -1 -37 465 0
-461 466 0
-462 467 0
-463 466 0
-464 467 0
-465 468 0
-461 -463 467 0
-461 -464 468 0
-461 -465 469 0
-462 -463 468 0
-462 -464 469 0
-462 -465 470 0
-458 471 0
-459 472 0
-460 473 0
-466 471 0
-467 472 0
-468 473 0
-469 474 0
-470 475 0
-458 -466 472 0
-458 -467 473 0
-458 -468 474 0
-458 -469 475 0
-458 -470 476 0
-459 -466 473 0
-459 -467 474 0
-459 -468 475 0
-459 -469 476 0
-459 -470 477 0
-460 -466 474 0
-460 -467 475 0
-460 -468 476 0
-460 -469 477 0
-460 -470 478 0
-49 479 0
-48 479 0
-49 -48 480 0
-47 479 0
-49 -47 480 0
-48 -47 480 0
-49 -48 -47 481 0
-46 482 0
-45 482 0
-46 -45 483 0
-44 484 0
-43 484 0
-44 -43 485 0
-42 484 0
-44 -42 485 0
-43 -42 485 0
-44 -43 -42 486 0
-482 487 0
-483 488 0
-484 487 0
-485 488 0
-486 489 0
-482 -484 488 0
-482 -485 489 0
-482 -486 490 0
-483 -484 489 0
-483 -485 490 0
-483 -486 491 0
-479 492 0
-480 493 0
-481 494 0
-487 492 0
-488 493 0
-489 494 0
-490 495 0
-491 496 0
-479 -487 493 0
-479 -488 494 0
-479 -489 495 0
-479 -490 496 0
-479 -491 497 0
-480 -487 494 0
-480 -488 495 0
-480 -489 496 0
-480 -490 497 0
-480 -491 498 0
-481 -487 495 0
-481 -488 496 0
-481 -489 497 0
-481 -490 498 0
-481 -491 499 0
-41 500 0
-40 500 0
-41 -40 501 0
-39 500 0
-41 -39 501 0
-40 -39 501 0
-41 -40 -39 502 0
-38 503 0
-50 503 0
-38 -50 504 0
-36 505 0
-35 505 0
-36 -35 506 0
-34 505 0
-36 -34 506 0
-35 -34 506 0
-36 -35 -34 507 0
-503 508 0
-504 509 0
-505 508 0
-506 509 0
-507 510 0
-503 -505 509 0
-503 -506 510 0
-503 -507 511 0
-504 -505 510 0
-504 -506 511 0
-504 -507 512 0
-500 513 0
-501 514 0
-502 515 0
-508 513 0
-509 514 0
-510 515 0
-511 516 0
-512 517 0
-500 -508 514 0
-500 -509 515 0
-500 -510 516 0
-500 -511 517 0
-500 -512 518 0
-501 -508 515 0
-501 -509 516 0
-501 -510 517 0
-501 -511 518 0
-501 -512 519 0
-502 -508 516 0
-502 -509 517 0
-502 -510 518 0
-502 -511 519 0
-502 -512 520 0
-33 521 0
-32 521 0
-33 -32 522 0
-31 521 0
-33 -31 522 0
-32 -31 522 0
-33 -32 -31 523 0
-30 524 0
-29 524 0
-30 -29 525 0
-28 526 0
-27 526 0
-28 -27 527 0
-26 526 0
-28 -26 527 0
-27 -26 527 0
-28 -27 -26 528 0
-524 529 0
-525 530 0
-526 529 0
-527 530 0
-528 531 0
-524 -526 530 0
-524 -527 531 0
-524 -528 532 0
-525 -526 531 0
-525 -527 532 0
-525 -528 533 0
-521 534 0
-522 535 0
-523 536 0
-529 534 0
-530 535 0
-531 536 0
-532 537 0
-533 538 0
-521 -529 535 0
-521 -530 536 0
-521 -531 537 0
-521 -532 538 0
-521 -533 539 0
-522 -529 536 0
-522 -530 537 0
-522 -531 538 0
-522 -532 539 0
-522 -533 540 0
-523 -529 537 0
-523 -530 538 0
-523 -531 539 0
-523 -532 540 0
-523 -533 541 0
-513 542 0
-515 543 0
-517 544 0
-519 545 0
-534 542 0
-536 543 0
-538 544 0
-540 545 0
-513 -534 543 0
-513 -536 544 0
-513 -538 545 0
-513 -540 546 0
-515 -534 544 0
-515 -536 545 0
-515 -538 546 0
-515 -540 547 0
-517 -534 545 0
-517 -536 546 0
-517 -538 547 0
-519 -534 546 0
-519 -536 547 0
-514 548 0
-518 549 0
-535 548 0
-539 549 0
-514 -535 549 0
-514 -539 550 0
-518 -535 550 0
-516 551 0
-520 552 0
-537 551 0
-541 552 0
-516 -537 552 0
-549 553 0
-551 553 0
-549 -551 554 0
-550 555 0
-552 555 0
-550 -552 556 0
-543 557 0
-548 557 0
-543 -548 558 0
-544 559 0
-553 559 0
-544 -553 560 0
-545 561 0
-554 561 0
-545 -554 562 0
-546 563 0
-555 563 0
-546 -555 564 0
-547 565 0
-556 565 0
-547 -556 566 0
-492 567 0
-494 568 0
-496 569 0
-498 570 0
-542 567 0
-558 568 0
-560 569 0
-562 570 0
-564 571 0
-566 572 0
-492 -542 568 0
-492 -558 569 0
-492 -560 570 0
-492 -562 571 0
-492 -564 572 0
-494 -542 569 0
-494 -558 570 0
-494 -560 571 0
-494 -562 572 0
-496 -542 570 0
-496 -558 571 0
-496 -560 572 0
-498 -542 571 0
-498 -558 572 0
-493 573 0
-497 574 0
-557 573 0
-561 574 0
-565 575 0
-493 -557 574 0
-493 -561 575 0
-497 -557 575 0
-495 576 0
-499 577 0
-559 576 0
-563 577 0
-495 -559 577 0
-574 578 0
-576 578 0
-574 -576 579 0
-575 580 0
-577 580 0
-575 -577 581 0
-568 582 0
-573 582 0
-568 -573 583 0
-569 584 0
-578 584 0
-569 -578 585 0
-570 586 0
-579 586 0
-570 -579 587 0
-571 588 0
-580 588 0
-571 -580 589 0
-572 590 0
-581 590 0
-572 -581 591 0
-471 592 0
-473 593 0
-475 594 0
-477 595 0
-567 592 0
-583 593 0
-585 594 0
-587 595 0
-589 596 0
-591 597 0
-471 -567 593 0
-471 -583 594 0
-471 -585 595 0
-471 -587 596 0
-471 -589 597 0
-473 -567 594 0
-473 -583 595 0
-473 -585 596 0
-473 -587 597 0
-475 -567 595 0
-475 -583 596 0
-475 -585 597 0
-477 -567 596 0
-477 -583 597 0
-472 598 0
-476 599 0
-582 598 0
-586 599 0
-590 600 0
-472 -582 599 0
-472 -586 600 0
-476 -582 600 0
-474 601 0
-478 602 0
-584 601 0
-588 602 0
-474 -584 602 0
-599 603 0
-601 603 0
-599 -601 604 0
-600 605 0
-602 605 0
-600 -602 606 0
-593 607 0
-598 607 0
-593 -598 608 0
-594 609 0
-603 609 0
-594 -603 610 0
-595 611 0
-604 611 0
-595 -604 612 0
-596 613 0
-605 613 0
-596 -605 614 0
-597 615 0
-606 615 0
-597 -606 616 0
-452 617 0
-454 618 0
-456 619 0
-592 617 0
-608 618 0
-610 619 0
-612 620 0
-614 621 0
-616 622 0
-452 -592 618 0
-452 -608 619 0
-452 -610 620 0
-452 -612 621 0
-452 -614 622 0
-454 -592 619 0
-454 -608 620 0
-454 -610 621 0
-454 -612 622 0
-456 -592 620 0
-456 -608 621 0
-456 -610 622 0
-453 623 0
-455 624 0
-457 625 0
-607 623 0
-609 624 0
-611 625 0
-613 626 0
-615 627 0
-453 -607 624 0
-453 -609 625 0
-453 -611 626 0
-453 -613 627 0
-455 -607 625 0
-455 -609 626 0
-455 -611 627 0
-457 -607 626 0
-457 -609 627 0
-618 628 0
-623 628 0
-618 -623 629 0
-619 630 0
-624 630 0
-619 -624 631 0
-620 632 0
-625 632 0
-620 -625 633 0
-621 634 0
-626 634 0
-621 -626 635 0
-622 636 0
-627 636 0
-622 -627 637 0
-440 638 0
-442 639 0
-444 640 0
-617 638 0
-629 639 0
-631 640 0
-633 641 0
-635 642 0
-637 643 0
-440 -617 639 0
-440 -629 640 0
-440 -631 641 0
-440 -633 642 0
-440 -635 643 0
-442 -617 640 0
-442 -629 641 0
-442 -631 642 0
-442 -633 643 0
-444 -617 641 0
-444 -629 642 0
-444 -631 643 0
-441 644 0
-443 645 0
-445 646 0
-628 644 0
-630 645 0
-632 646 0
-634 647 0
-636 648 0
-441 -628 645 0
-441 -630 646 0
-441 -632 647 0
-441 -634 648 0
-443 -628 646 0
-443 -630 647 0
-443 -632 648 0
-445 -628 647 0
-445 -630 648 0
-639 649 0
-644 649 0
-639 -644 650 0
-640 651 0
-645 651 0
-640 -645 652 0
-641 653 0
-646 653 0
-641 -646 654 0
-642 655 0
-647 655 0
-642 -647 656 0
-643 657 0
-648 657 0
-643 -648 658 0
-428 659 0
-430 660 0
-432 661 0
-638 659 0
-650 660 0
-652 661 0
-654 662 0
-656 663 0
-658 664 0
-428 -638 660 0
-428 -650 661 0
-428 -652 662 0
-428 -654 663 0
-428 -656 664 0
-430 -638 661 0
-430 -650 662 0
-430 -652 663 0
-430 -654 664 0
-432 -638 662 0
-432 -650 663 0
-432 -652 664 0
-429 665 0
-431 666 0
-433 667 0
-649 665 0
-651 666 0
-653 667 0
-655 668 0
-657 669 0
-429 -649 666 0
-429 -651 667 0
-429 -653 668 0
-429 -655 669 0
-431 -649 667 0
-431 -651 668 0
-431 -653 669 0
-433 -649 668 0
-433 -651 669 0
-660 670 0
-665 670 0
-660 -665 671 0
-661 672 0
-666 672 0
-661 -666 673 0
-662 674 0
-667 674 0
-662 -667 675 0
-663 676 0
-668 676 0
-663 -668 677 0
-664 678 0
-669 678 0
-664 -669 679 0
-679 0
